95 
300 
-0.5 0 0 0
0.5 0 0 -28
-7 -7 -35 -96
-7 -5 -35 -93
-7 -3 -35 -127
-7 -1 35 -11
-7 1 -35 -121
-7 3 35 -12
-7 5 35 -18
-7 7 -35 -106
-5 -7 35 -11
-5 -5 -25 -106
-5 -3 25 -10
-5 -1 25 -12
-5 1 -25 -116
-5 3 25 -27
-5 5 25 -29
-5 7 35 -13
-3 -7 35 -19
-3 -5 25 -28
-3 -3 15 -15
-3 -1 15 -11
-3 1 -15 -62
-3 3 -15 -100
-3 5 25 -11
-3 7 35 -25
-1 -7 35 -27
-1 -5 25 -12
-1 -3 15 -22
-1 -1 -5 -60
-1 1 -5 -111
-1 3 15 -10
-1 5 25 -18
-1 7 35 -13
1 -7 35 -25
1 -5 25 -20
1 -3 15 -20
1 -1 -5 -109
1 1 5 -28
1 3 15 -28
1 5 25 -15
1 7 -35 -72
3 -7 -35 -97
3 -5 25 -15
3 -3 -15 -130
3 -1 15 -27
3 1 -15 -70
3 3 -15 -133
3 5 25 -19
3 7 35 -28
5 -7 -35 -101
5 -5 -25 -62
5 -3 -25 -100
5 -1 25 -26
5 1 -25 -124
5 3 -25 -137
5 5 25 -28
5 7 -35 -94
7 -7 -35 -86
7 -5 35 -23
7 -3 -35 -78
7 -1 35 -26
7 1 -35 -108
7 3 -35 -91
7 5 35 -13
7 7 -35 -134
